(set-logic QF_S)
(declare-fun var0 () String)
(declare-fun var1 () String)
(declare-fun var2 () String)
(declare-fun var3 () Int)
(declare-fun var4 () Int)
(declare-fun var5 () Int)
(declare-fun var6 () String)
(declare-fun var7 () Int)
(assert (> (str.to.int var0) (str.indexof var1 var2 var3)))
(assert (not (>= var4 var5)))
(assert (str.suffixof (str.substr (str.at var6 var7) (str.len "a<RIy\\C_Z") (str.to.int var0)) (str.replace (str.at var1 var7) (str.at var1 var7) (str.at var2 var3))))
(assert (str.suffixof (str.at var0 var3) (str.replace var0 var6 var6)))
(check-sat)